Version identifier: 20.1.0.0 | 2020-11-10 | 9bedb6d68
CPXPARAM_Threads                                 1
CPXPARAM_TimeLimit                               7200
CPXPARAM_MIP_Tolerances_MIPGap                   0
Generic callback                                 0x60
1 of 1 MIP starts provided solutions.
MIP start 'm1' defined initial solution with objective 3353.3755.
Tried aggregator 1 time.
Reduced MIP has 801001 rows, 800801 columns, and 2400800 nonzeros.
Reduced MIP has 800 binaries, 0 generals, 0 SOSs, and 0 indicators.
Presolve time = 0.72 sec. (638.96 ticks)
Probing time = 0.10 sec. (100.03 ticks)
Tried aggregator 1 time.
Reduced MIP has 801001 rows, 800801 columns, and 2400800 nonzeros.
Reduced MIP has 800 binaries, 0 generals, 0 SOSs, and 0 indicators.
Presolve time = 0.74 sec. (625.98 ticks)
Probing time = 0.10 sec. (100.03 ticks)
MIP emphasis: balance optimality and feasibility.
MIP search method: dynamic search.
Parallel mode: none, using 1 thread.
Root relaxation solution time = 0.27 sec. (308.52 ticks)

        Nodes                                         Cuts/
   Node  Left     Objective  IInf  Best Integer    Best Bound    ItCnt     Gap

*     0+    0                         3353.3755     5432.0000            61.99%
      0     0     3551.7246    23     3353.3755     5432.0000        0   61.99%
      0     2     3354.8475    16     3353.3755     3354.8474        0    0.04%
Elapsed time = 117.89 sec. (83675.14 ticks, tree = 0.01 MB, solutions = 1)
      1     3     3354.6301    24     3353.3755     3354.8474      300    0.04%
*     2     0      integral     0     3354.7194     3354.7194      426    0.00%

User cuts applied:  1

Root node processing (before b&c):
  Real time             =  117.87 sec. (83651.18 ticks)
Sequential b&c:
  Real time             =   17.31 sec. (1373.27 ticks)
                          ------------
Total (root+branch&cut) =  135.18 sec. (85024.45 ticks)
@Parameters: 
is_S_cut                                true
is_add_all_yinF                         true
is_start_value                          true
is_usercut                              true
is_visualization                        false
uc_only_rootnode                        false

data                                    Qi
fn                                      data/Qi/instance_1000_800.csv
mode                                    ZLP
solver                                  cplex

p                                       50
r                                       10

EPS                                     1.0e-06
EPS_vio                                 1.0e-04
beta                                    0.10
gap                                     0.00
nodelimit                               Inf
timelimit                               7200.00


@PrintInfos
ItCnt: 426
Current gap: 0.00 %
Termination Status: OPTIMAL
Primal Status: FEASIBLE_POINT
Solve Time: 135.18 sec
Objective Value: 3354.719429
Number of Nodes:      3

CutInfo: [phase] num / time (sec) 
ZLP             [phase1]     0 / 0.00 [rLC]     3 / 26.04 [rUC]     0 / 8.41 [sLC]     0 / 4.93 [sUC]     0 / 10.65 
OldSubmodular   [phase1]     0 / 0.00 [rLC]     0 / 0.00 [rUC]     0 / 0.00 [sLC]     0 / 0.00 [sUC]     0 / 0.00 
NewSubmodular   [phase1]     0 / 0.00 [rLC]     0 / 0.00 [rUC]     0 / 0.00 [sLC]     0 / 0.00 [sUC]     0 / 0.00 
PMP             [phase1]     0 / 0.00 [rLC]     4 / 21.35 [rUC]     2 / 6.77 [sLC]     1 / 4.36 [sUC]     2 / 9.14 
Separation Round: [phase1] 0  [rLC] 4  [rUC] 2  [sLC] 1  [sUC] 2
Root Best Bound 3354.719429
Root Best Integer: 3354.719429
Best Bound: 3354.719429
Best Integer: 3354.719429

